10
10
1010004
0
0
90 63 50 68 26 79 24 17 78 76 
1
0
69 61 19 7 72 99 15 11 53 28 
2
0
40 33 76 57 89 13 94 72 44 80 
3
0
47 97 58 35 41 1 55 27 61 49 
4
0
5 47 94 65 37 7 48 98 8 9 
5
0
65 32 18 88 4 93 43 14 37 76 
6
0
25 56 90 48 59 50 2 52 70 23 
7
0
8 20 76 62 74 44 59 3 2 12 
8
0
9 34 2 72 16 82 68 45 46 52 
9
0
56 92 31 52 27 22 86 67 49 23 
